HUN,8,6,991
2,3,1,11,0,26,3,10,4,7,5,15
1,21,0,13,2,6,4,9,3,14,5,20
2,9,0,30,1,19,4,4,3,24,5,3
0,24,1,13,2,8,5,9,3,13,4,29
1,24,0,10,2,13,4,9,3,25,5,17
1,22,2,20,0,12,3,8,4,10,5,25
2,5,1,3,0,21,4,23,3,24,5,27
1,20,0,29,2,22,3,26,5,19,4,22
